<number of tasks>
250

<cycle time>
1000

<order strength>
0.896


<task times>
1 105
2 34
3 76
4 45
5 112
6 33
7 299
8 217
9 46
10 245
11 31
12 189
13 194
14 76
15 53
16 183
17 266
18 171
19 296
20 201
21 209
22 199
23 83
24 136
25 269
26 244
27 160
28 160
29 76
30 375
31 150
32 73
33 64
34 158
35 158
36 48
37 104
38 62
39 186
40 39
41 65
42 252
43 149
44 190
45 113
46 27
47 227
48 157
49 319
50 157
51 97
52 67
53 65
54 182
55 241
56 195
57 185
58 187
59 185
60 63
61 170
62 173
63 37
64 52
65 141
66 127
67 97
68 124
69 70
70 181
71 145
72 169
73 119
74 63
75 104
76 207
77 125
78 121
79 60
80 399
81 59
82 94
83 237
84 87
85 215
86 185
87 106
88 42
89 65
90 76
91 121
92 114
93 55
94 69
95 170
96 190
97 116
98 41
99 122
100 168
101 187
102 93
103 249
104 95
105 132
106 87
107 26
108 73
109 155
110 49
111 83
112 191
113 218
114 290
115 54
116 48
117 136
118 145
119 55
120 32
121 233
122 265
123 305
124 204
125 82
126 38
127 53
128 180
129 32
130 154
131 148
132 172
133 123
134 83
135 261
136 180
137 160
138 99
139 87
140 208
141 59
142 137
143 96
144 141
145 131
146 226
147 92
148 82
149 52
150 114
151 151
152 74
153 129
154 125
155 122
156 114
157 83
158 46
159 67
160 163
161 114
162 214
163 119
164 127
165 101
166 105
167 204
168 84
169 63
170 116
171 177
172 167
173 138
174 158
175 76
176 370
177 115
178 236
179 37
180 45
181 219
182 136
183 194
184 121
185 82
186 75
187 318
188 101
189 42
190 77
191 96
192 150
193 106
194 129
195 232
196 95
197 139
198 179
199 189
200 62
201 200
202 93
203 47
204 176
205 149
206 243
207 185
208 241
209 299
210 208
211 110
212 209
213 69
214 206
215 69
216 98
217 101
218 75
219 179
220 158
221 76
222 144
223 202
224 70
225 66
226 297
227 177
228 64
229 159
230 95
231 58
232 59
233 138
234 77
235 101
236 139
237 67
238 94
239 182
240 42
241 77
242 87
243 123
244 65
245 76
246 178
247 262
248 107
249 149
250 300

<precedence relations>
1,5
1,7
2,33
2,39
3,5
3,6
3,7
3,8
3,9
4,5
4,6
4,7
4,8
4,9
5,10
5,11
5,12
5,13
6,10
6,11
6,12
6,13
6,15
7,10
7,11
7,12
7,13
7,14
7,15
8,12
8,13
8,14
8,15
9,10
9,11
9,15
10,16
10,17
10,18
10,19
11,16
11,17
11,19
11,20
12,16
12,17
12,18
12,19
12,20
13,16
13,17
13,18
13,19
13,20
14,16
14,17
14,18
14,19
14,20
15,16
15,17
15,18
15,19
15,20
16,21
16,22
16,23
16,24
16,25
16,26
17,21
17,22
17,23
17,24
17,25
18,30
18,31
19,21
19,22
19,23
19,24
19,25
19,26
20,21
20,22
20,23
20,24
20,25
20,26
21,27
21,28
21,29
21,30
21,31
22,27
22,28
22,29
22,30
22,31
23,27
23,28
23,29
23,30
23,31
24,35
24,38
24,39
25,27
25,28
25,29
25,30
25,31
26,27
26,28
26,29
26,30
26,31
27,32
27,33
28,32
28,33
29,32
29,33
30,32
30,33
31,32
31,33
32,34
32,35
32,36
32,38
32,39
33,34
33,35
33,36
33,37
34,42
34,43
35,40
35,41
35,42
35,43
35,44
36,40
36,41
36,42
36,43
36,44
37,40
37,41
37,42
37,43
37,44
38,40
38,41
38,42
38,43
38,44
39,40
39,41
39,42
39,43
39,44
40,45
40,46
40,47
41,45
41,46
41,47
42,45
42,46
42,47
43,45
43,46
43,47
44,45
44,46
44,47
45,48
45,49
45,50
46,48
46,49
46,50
47,48
47,49
47,50
48,51
48,52
48,53
49,51
49,54
49,55
50,55
51,56
51,57
51,58
52,56
52,57
52,58
53,56
53,57
54,56
54,58
55,56
55,57
55,58
56,59
56,60
56,61
56,62
57,59
57,60
57,61
57,62
58,62
59,63
59,65
59,67
60,79
60,81
60,83
60,84
61,63
61,64
61,65
61,66
61,67
61,68
62,63
62,64
62,67
62,68
63,69
63,70
63,71
63,72
64,69
64,70
64,71
64,72
65,90
66,69
66,70
66,71
66,72
67,69
67,70
67,72
68,69
69,75
69,78
69,79
70,73
70,74
70,75
71,73
71,75
72,73
72,74
72,75
73,76
73,78
73,79
73,84
74,76
74,77
74,78
75,76
75,77
75,80
76,81
76,82
77,81
77,83
77,84
78,97
79,82
79,85
79,86
80,81
80,83
80,84
81,85
81,86
82,107
82,112
83,85
83,86
84,85
84,86
85,87
85,88
85,89
85,90
86,90
86,91
86,92
86,95
87,93
88,93
88,94
88,95
88,96
88,97
89,93
89,94
89,95
90,94
90,96
91,93
91,96
91,97
92,93
92,97
93,98
93,99
93,100
93,101
93,102
94,98
94,99
94,100
94,101
94,102
95,98
95,99
95,101
96,159
96,169
97,100
98,107
98,112
99,103
99,104
99,105
100,103
100,104
100,105
100,106
101,103
101,105
101,107
102,106
102,119
103,108
104,108
104,116
105,108
105,110
105,112
106,109
106,111
106,114
107,108
107,109
107,116
108,113
108,114
108,115
108,119
109,113
111,115
111,145
111,156
112,116
113,118
114,117
114,134
115,181
115,193
115,198
115,201
116,117
116,119
117,121
117,122
117,123
118,120
118,124
118,132
119,124
119,150
119,157
120,125
120,128
121,125
121,126
122,127
122,129
122,135
123,125
123,126
123,127
123,128
124,129
124,130
125,131
125,135
125,137
126,131
126,132
126,137
127,166
127,246
128,133
128,135
128,143
129,231
130,134
131,139
131,162
132,136
133,137
133,188
134,138
135,136
135,138
135,148
136,142
137,161
137,189
138,140
138,141
139,140
139,141
139,143
139,157
140,145
140,147
141,144
141,145
141,155
142,144
142,145
142,146
142,147
143,148
143,178
144,149
144,158
145,149
146,149
146,150
146,151
146,152
147,149
147,152
148,204
149,153
149,180
149,190
150,155
150,188
151,154
152,156
152,164
153,198
153,200
153,201
154,157
154,159
155,173
156,158
156,161
157,160
158,160
158,163
159,160
159,161
159,162
160,165
160,166
160,168
161,167
162,164
162,165
162,166
162,168
163,167
163,169
163,175
163,185
164,170
165,172
165,177
167,173
168,170
168,171
168,172
169,173
169,183
169,193
170,174
170,175
170,176
170,177
171,174
172,186
173,190
174,178
174,180
175,178
175,179
176,178
176,181
176,185
176,187
177,178
177,179
177,180
177,182
178,184
178,186
179,187
179,224
180,192
180,193
181,194
181,207
182,183
182,185
183,197
184,213
185,188
185,229
186,188
186,189
186,190
188,202
188,207
188,228
189,193
189,207
190,191
190,192
191,196
192,194
192,195
192,196
192,198
193,194
193,197
194,204
194,217
195,221
196,201
196,205
197,199
197,200
198,199
198,203
199,202
199,204
200,202
200,205
200,213
201,202
201,203
201,231
202,206
203,207
204,208
205,216
205,237
205,238
206,209
206,216
207,214
207,235
208,210
208,211
208,212
208,213
209,217
210,215
212,218
213,215
213,216
215,219
216,222
217,223
218,220
218,221
219,228
219,229
220,250
221,242
221,250
222,224
222,226
223,225
223,227
224,232
225,250
226,241
227,230
227,233
227,238
228,231
229,230
230,234
230,235
230,237
231,233
231,234
231,236
231,238
232,248
233,239
233,242
234,240
235,241
236,242
237,243
237,250
239,245
239,246
239,250
242,246
242,248
243,244
243,247
243,249

<end>
